32 9 
79 56 
46 77 
99 49 
40 74 
20 75 
55 6 
46 81 
88 62 
31 96 
83 82 
37 49 
26 5 
23 36 
33 54 
0 65 
63 31 
22 61 
60 73 
10 52 
99 31 
80 6 
37 26 
88 78 
40 71 
26 24 
53 15 
25 32 
20 48 
20 6 
